
Log started (V11.0.0) Mon May 19 16:44:54 2008

Tried aggregator 1 time.
Reduced MIP has 550 rows, 25001 columns, and 50050 nonzeros.
Presolve time =    0.19 sec.
Clique table members: 500.
MIP emphasis: balance optimality and feasibility.
MIP search method: dynamic search.
Parallel mode: none, using 1 thread.
Root relaxation solution time =    2.86 sec.

        Nodes                                         Cuts/
   Node  Left     Objective  IInf  Best Integer     Best Node    ItCnt     Gap

*     0+    0                        19155.0000      266.3101     1077   98.61%
*     0+    0                          331.0000      266.3101     1077   19.54%
      0     0      267.0000    88      331.0000      Fract: 7     1123   19.34%
*     0+    0                          306.0000      267.0000     1123   12.75%
      0     0      267.0000    96      306.0000       Cuts: 5     1202   12.75%
      0     0      267.0000    95      306.0000       Cuts: 2     1225   12.75%
*     0+    0                          300.0000      267.0000     1225   11.00%
*     0+    0                          298.0000      267.0000     1225   10.40%
*     0+    0                          297.0000      267.0000     1225   10.10%
*     0+    0                          295.0000      267.0000     1225    9.49%
*     0+    0                          294.0000      267.0000     1225    9.18%
*     0+    0                          289.0000      267.0000     1225    7.61%
*     0+    0                          288.0000      267.0000     1225    7.29%
      0     2      267.0000    95      288.0000      267.0000     1225    7.29%
*    50+   48                          286.0000      267.0000     3169    6.64%
*    80+   76                          285.0000      267.0000     3743    6.32%
    100    93      269.2850    91      285.0000      267.0000     5084    6.32%
*   130+  112                          284.0000      267.0000     7346    5.99%
    200   168      269.0000    77      284.0000      267.0000    12465    5.99%
    300   230      269.0000    80      284.0000      267.0000    22274    5.99%
    400   294      269.0000    80      284.0000      267.0000    29937    5.99%
    500   352      269.0000    85      284.0000      267.0000    36141    5.99%
*   513+  240                          283.0000      279.7502    40689    1.15%
*   513+  160                          282.0000      279.7502    40689    0.80%
    600   162      281.0000    28      282.0000      279.7502    43537    0.80%
*   613+   88                          281.0000      279.7502    44328    0.44%

Cover cuts applied:  59
Mixed integer rounding cuts applied:  4
Gomory fractional cuts applied:  4

Solution pool: 16 solutions saved.

MIP - Integer optimal solution:  Objective = 2.8100000000e+002
Solution time =  121.83 sec.  Iterations = 47327  Nodes = 639 (45)


Incumbent solution
Variable Name           Solution Value
Cmax                        281.000000
X_1_19                        1.000000
X_2_8                         1.000000
X_3_9                         1.000000
X_4_44                        1.000000
X_5_16                        1.000000
X_6_50                        1.000000
X_7_24                        1.000000
X_8_22                        1.000000
X_9_38                        1.000000
X_10_29                       1.000000
X_11_48                       1.000000
X_12_21                       1.000000
X_13_29                       1.000000
X_14_1                        1.000000
X_15_41                       1.000000
X_16_29                       1.000000
X_17_29                       1.000000
X_18_35                       1.000000
X_19_44                       1.000000
X_20_19                       1.000000
X_21_40                       1.000000
X_22_29                       1.000000
X_23_27                       1.000000
X_24_19                       1.000000
X_25_17                       1.000000
X_26_48                       1.000000
X_27_29                       1.000000
X_28_15                       1.000000
X_29_19                       1.000000
X_30_29                       1.000000
X_31_19                       1.000000
X_32_2                        1.000000
X_33_25                       1.000000
X_34_16                       1.000000
X_35_50                       1.000000
X_36_31                       1.000000
X_37_15                       1.000000
X_38_2                        1.000000
X_39_19                       1.000000
X_40_29                       1.000000
X_41_40                       1.000000
X_42_19                       1.000000
X_43_24                       1.000000
X_44_29                       1.000000
X_45_11                       1.000000
X_46_29                       1.000000
X_47_19                       1.000000
X_48_35                       1.000000
X_49_29                       1.000000
X_50_29                       1.000000
X_51_16                       1.000000
X_52_19                       1.000000
X_53_28                       1.000000
X_54_29                       1.000000
X_55_47                       1.000000
X_56_29                       1.000000
X_57_31                       1.000000
X_58_16                       1.000000
X_59_29                       1.000000
X_60_38                       1.000000
X_61_19                       1.000000
X_62_38                       1.000000
X_63_29                       1.000000
X_64_13                       1.000000
X_65_27                       1.000000
X_66_9                        1.000000
X_67_44                       1.000000
X_68_50                       1.000000
X_69_3                        1.000000
X_70_31                       1.000000
X_71_42                       1.000000
X_72_21                       1.000000
X_73_16                       1.000000
X_74_16                       1.000000
X_75_29                       1.000000
X_76_35                       1.000000
X_77_29                       1.000000
X_78_29                       1.000000
X_79_39                       1.000000
X_80_31                       1.000000
X_81_37                       1.000000
X_82_40                       1.000000
X_83_24                       1.000000
X_84_19                       1.000000
X_85_19                       1.000000
X_86_2                        1.000000
X_87_37                       1.000000
X_88_2                        1.000000
X_89_35                       1.000000
X_90_29                       1.000000
X_91_31                       1.000000
X_92_19                       1.000000
X_93_16                       1.000000
X_94_29                       1.000000
X_95_19                       1.000000
X_96_29                       1.000000
X_97_29                       1.000000
X_98_13                       1.000000
X_99_35                       1.000000
X_100_29                      1.000000
X_101_19                      1.000000
X_102_4                       1.000000
X_103_16                      1.000000
X_104_19                      1.000000
X_105_29                      1.000000
X_106_31                      1.000000
X_107_16                      1.000000
X_108_4                       1.000000
X_109_34                      1.000000
X_110_18                      1.000000
X_111_28                      1.000000
X_112_46                      1.000000
X_113_5                       1.000000
X_114_4                       1.000000
X_115_21                      1.000000
X_116_19                      1.000000
X_117_7                       1.000000
X_118_16                      1.000000
X_119_16                      1.000000
X_120_40                      1.000000
X_121_19                      1.000000
X_122_29                      1.000000
X_123_19                      1.000000
X_124_39                      1.000000
X_125_35                      1.000000
X_126_13                      1.000000
X_127_3                       1.000000
X_128_19                      1.000000
X_129_25                      1.000000
X_130_21                      1.000000
X_131_13                      1.000000
X_132_2                       1.000000
X_133_16                      1.000000
X_134_29                      1.000000
X_135_27                      1.000000
X_136_33                      1.000000
X_137_29                      1.000000
X_138_21                      1.000000
X_139_31                      1.000000
X_140_3                       1.000000
X_141_29                      1.000000
X_142_35                      1.000000
X_143_19                      1.000000
X_144_29                      1.000000
X_145_13                      1.000000
X_146_29                      1.000000
X_147_44                      1.000000
X_148_20                      1.000000
X_149_41                      1.000000
X_150_46                      1.000000
X_151_30                      1.000000
X_152_19                      1.000000
X_153_19                      1.000000
X_154_18                      1.000000
X_155_29                      1.000000
X_156_16                      1.000000
X_157_47                      1.000000
X_158_29                      1.000000
X_159_2                       1.000000
X_160_11                      1.000000
X_161_21                      1.000000
X_162_16                      1.000000
X_163_12                      1.000000
X_164_19                      1.000000
X_165_29                      1.000000
X_166_20                      1.000000
X_167_21                      1.000000
X_168_16                      1.000000
X_169_19                      1.000000
X_170_1                       1.000000
X_171_50                      1.000000
X_172_17                      1.000000
X_173_35                      1.000000
X_174_35                      1.000000
X_175_35                      1.000000
X_176_27                      1.000000
X_177_13                      1.000000
X_178_17                      1.000000
X_179_2                       1.000000
X_180_14                      1.000000
X_181_39                      1.000000
X_182_39                      1.000000
X_183_29                      1.000000
X_184_33                      1.000000
X_185_46                      1.000000
X_186_19                      1.000000
X_187_35                      1.000000
X_188_16                      1.000000
X_189_4                       1.000000
X_190_35                      1.000000
X_191_21                      1.000000
X_192_29                      1.000000
X_193_29                      1.000000
X_194_29                      1.000000
X_195_27                      1.000000
X_196_34                      1.000000
X_197_31                      1.000000
X_198_35                      1.000000
X_199_26                      1.000000
X_200_29                      1.000000
X_201_2                       1.000000
X_202_16                      1.000000
X_203_32                      1.000000
X_204_27                      1.000000
X_205_44                      1.000000
X_206_19                      1.000000
X_207_47                      1.000000
X_208_29                      1.000000
X_209_35                      1.000000
X_210_19                      1.000000
X_211_19                      1.000000
X_212_45                      1.000000
X_213_21                      1.000000
X_214_21                      1.000000
X_215_13                      1.000000
X_216_29                      1.000000
X_217_19                      1.000000
X_218_33                      1.000000
X_219_15                      1.000000
X_220_35                      1.000000
X_221_44                      1.000000
X_222_24                      1.000000
X_223_19                      1.000000
X_224_14                      1.000000
X_225_1                       1.000000
X_226_34                      1.000000
X_227_48                      1.000000
X_228_22                      1.000000
X_229_35                      1.000000
X_230_40                      1.000000
X_231_33                      1.000000
X_232_35                      1.000000
X_233_16                      1.000000
X_234_2                       1.000000
X_235_37                      1.000000
X_236_4                       1.000000
X_237_8                       1.000000
X_238_2                       1.000000
X_239_50                      1.000000
X_240_50                      1.000000
X_241_32                      1.000000
X_242_29                      1.000000
X_243_29                      1.000000
X_244_32                      1.000000
X_245_10                      1.000000
X_246_32                      1.000000
X_247_8                       1.000000
X_248_29                      1.000000
X_249_21                      1.000000
X_250_13                      1.000000
X_251_35                      1.000000
X_252_12                      1.000000
X_253_29                      1.000000
X_254_29                      1.000000
X_255_4                       1.000000
X_256_23                      1.000000
X_257_44                      1.000000
X_258_19                      1.000000
X_259_42                      1.000000
X_260_39                      1.000000
X_261_13                      1.000000
X_262_44                      1.000000
X_263_31                      1.000000
X_264_24                      1.000000
X_265_42                      1.000000
X_266_19                      1.000000
X_267_45                      1.000000
X_268_29                      1.000000
X_269_20                      1.000000
X_270_16                      1.000000
X_271_29                      1.000000
X_272_29                      1.000000
X_273_32                      1.000000
X_274_35                      1.000000
X_275_9                       1.000000
X_276_29                      1.000000
X_277_27                      1.000000
X_278_29                      1.000000
X_279_21                      1.000000
X_280_29                      1.000000
X_281_20                      1.000000
X_282_18                      1.000000
X_283_38                      1.000000
X_284_35                      1.000000
X_285_35                      1.000000
X_286_15                      1.000000
X_287_19                      1.000000
X_288_19                      1.000000
X_289_14                      1.000000
X_290_2                       1.000000
X_291_35                      1.000000
X_292_17                      1.000000
X_293_24                      1.000000
X_294_50                      1.000000
X_295_13                      1.000000
X_296_29                      1.000000
X_297_18                      1.000000
X_298_47                      1.000000
X_299_33                      1.000000
X_300_27                      1.000000
X_301_16                      1.000000
X_302_8                       1.000000
X_303_21                      1.000000
X_304_35                      1.000000
X_305_41                      1.000000
X_306_19                      1.000000
X_307_27                      1.000000
X_308_24                      1.000000
X_309_31                      1.000000
X_310_6                       1.000000
X_311_18                      1.000000
X_312_29                      1.000000
X_313_40                      1.000000
X_314_29                      1.000000
X_315_19                      1.000000
X_316_16                      1.000000
X_317_23                      1.000000
X_318_38                      1.000000
X_319_6                       1.000000
X_320_14                      1.000000
X_321_29                      1.000000
X_322_29                      1.000000
X_323_2                       1.000000
X_324_19                      1.000000
X_325_31                      1.000000
X_326_27                      1.000000
X_327_29                      1.000000
X_328_16                      1.000000
X_329_35                      1.000000
X_330_35                      1.000000
X_331_31                      1.000000
X_332_2                       1.000000
X_333_29                      1.000000
X_334_29                      1.000000
X_335_27                      1.000000
X_336_18                      1.000000
X_337_2                       1.000000
X_338_35                      1.000000
X_339_29                      1.000000
X_340_29                      1.000000
X_341_46                      1.000000
X_342_27                      1.000000
X_343_19                      1.000000
X_344_22                      1.000000
X_345_19                      1.000000
X_346_38                      1.000000
X_347_31                      1.000000
X_348_19                      1.000000
X_349_16                      1.000000
X_350_33                      1.000000
X_351_18                      1.000000
X_352_29                      1.000000
X_353_29                      1.000000
X_354_31                      1.000000
X_355_29                      1.000000
X_356_19                      1.000000
X_357_19                      1.000000
X_358_38                      1.000000
X_359_26                      1.000000
X_360_17                      1.000000
X_361_31                      1.000000
X_362_49                      1.000000
X_363_19                      1.000000
X_364_40                      1.000000
X_365_15                      1.000000
X_366_29                      1.000000
X_367_35                      1.000000
X_368_4                       1.000000
X_369_19                      1.000000
X_370_19                      1.000000
X_371_16                      1.000000
X_372_21                      1.000000
X_373_2                       1.000000
X_374_29                      1.000000
X_375_30                      1.000000
X_376_18                      1.000000
X_377_19                      1.000000
X_378_29                      1.000000
X_379_35                      1.000000
X_380_39                      1.000000
X_381_19                      1.000000
X_382_9                       1.000000
X_383_41                      1.000000
X_384_29                      1.000000
X_385_18                      1.000000
X_386_18                      1.000000
X_387_39                      1.000000
X_388_13                      1.000000
X_389_21                      1.000000
X_390_19                      1.000000
X_391_29                      1.000000
X_392_19                      1.000000
X_393_21                      1.000000
X_394_6                       1.000000
X_395_3                       1.000000
X_396_19                      1.000000
X_397_13                      1.000000
X_398_19                      1.000000
X_399_20                      1.000000
X_400_32                      1.000000
X_401_44                      1.000000
X_402_16                      1.000000
X_403_14                      1.000000
X_404_32                      1.000000
X_405_18                      1.000000
X_406_11                      1.000000
X_407_35                      1.000000
X_408_29                      1.000000
X_409_42                      1.000000
X_410_32                      1.000000
X_411_35                      1.000000
X_412_21                      1.000000
X_413_21                      1.000000
X_414_24                      1.000000
X_415_29                      1.000000
X_416_18                      1.000000
X_417_25                      1.000000
X_418_27                      1.000000
X_419_19                      1.000000
X_420_42                      1.000000
X_421_19                      1.000000
X_422_29                      1.000000
X_423_35                      1.000000
X_424_29                      1.000000
X_425_29                      1.000000
X_426_10                      1.000000
X_427_43                      1.000000
X_428_35                      1.000000
X_429_17                      1.000000
X_430_29                      1.000000
X_431_35                      1.000000
X_432_36                      1.000000
X_433_29                      1.000000
X_434_19                      1.000000
X_435_29                      1.000000
X_436_35                      1.000000
X_437_29                      1.000000
X_438_36                      1.000000
X_439_13                      1.000000
X_440_19                      1.000000
X_441_29                      1.000000
X_442_1                       1.000000
X_443_16                      1.000000
X_444_49                      1.000000
X_445_4                       1.000000
X_446_29                      1.000000
X_447_50                      1.000000
X_448_7                       1.000000
X_449_29                      1.000000
X_450_35                      1.000000
X_451_23                      1.000000
X_452_19                      1.000000
X_453_24                      1.000000
X_454_35                      1.000000
X_455_2                       1.000000
X_456_5                       1.000000
X_457_8                       1.000000
X_458_19                      1.000000
X_459_29                      1.000000
X_460_12                      1.000000
X_461_13                      1.000000
X_462_13                      1.000000
X_463_10                      1.000000
X_464_4                       1.000000
X_465_19                      1.000000
X_466_19                      1.000000
X_467_29                      1.000000
X_468_19                      1.000000
X_469_12                      1.000000
X_470_27                      1.000000
X_471_19                      1.000000
X_472_24                      1.000000
X_473_50                      1.000000
X_474_33                      1.000000
X_475_19                      1.000000
X_476_19                      1.000000
X_477_16                      1.000000
X_478_29                      1.000000
X_479_19                      1.000000
X_480_14                      1.000000
X_481_16                      1.000000
X_482_36                      1.000000
X_483_20                      1.000000
X_484_19                      1.000000
X_485_29                      1.000000
X_486_16                      1.000000
X_487_20                      1.000000
X_488_38                      1.000000
X_489_43                      1.000000
X_490_13                      1.000000
X_491_29                      1.000000
X_492_33                      1.000000
X_493_16                      1.000000
X_494_35                      1.000000
X_495_4                       1.000000
X_496_18                      1.000000
X_497_27                      1.000000
X_498_27                      1.000000
X_499_30                      1.000000
X_500_19                      1.000000
All other variables in the range 1-25001 are 0.
